; SWAP1 DUP1 SWAP3 DUP4 SWAP3 => DUP2 SWAP3 DUP4 SWAP2
(set-option :produce-proofs true)
; 
(set-info :status unknown)
(declare-fun storage_t ((_ BitVec 256) (_ BitVec 256) (_ BitVec 256) Int (_ BitVec 256)) (_ BitVec 256))
(declare-fun storage_s ((_ BitVec 256) (_ BitVec 256) (_ BitVec 256) Int (_ BitVec 256)) (_ BitVec 256))
(declare-fun exc_halt_t (Int) Bool)
(declare-fun exc_halt_s (Int) Bool)
(declare-fun sc_t (Int) (_ BitVec 6))
(declare-fun stack_t ((_ BitVec 256) (_ BitVec 256) (_ BitVec 256) Int (_ BitVec 6)) (_ BitVec 256))
(declare-fun stack_s ((_ BitVec 256) (_ BitVec 256) (_ BitVec 256) Int (_ BitVec 6)) (_ BitVec 256))
(declare-fun sc_s (Int) (_ BitVec 6))
(declare-fun used_gas_t ((_ BitVec 256) (_ BitVec 256) (_ BitVec 256) Int) Int)
(declare-fun used_gas_s ((_ BitVec 256) (_ BitVec 256) (_ BitVec 256) Int) Int)
(assert
 (exists ((x_0 (_ BitVec 256)) (x_1 (_ BitVec 256)) (x_2 (_ BitVec 256)) )(let (($x1988 (forall ((w (_ BitVec 256)) )(let ((?x7184 (storage_t x_0 x_1 x_2 4 w)))
 (let ((?x11318 (storage_s x_0 x_1 x_2 5 w)))
 (= ?x11318 ?x7184))))
 ))
 (let (($x3723 (exc_halt_t 4)))
 (let (($x3979 (exc_halt_s 5)))
 (let (($x7567 (= $x3979 $x3723)))
 (let (($x2433 (forall ((n (_ BitVec 6)) )(let ((?x3757 (sc_t 4)))
 (let (($x9850 (bvsle ?x3757 n)))
 (let ((?x7052 (stack_t x_0 x_1 x_2 4 n)))
 (let ((?x7499 (stack_s x_0 x_1 x_2 5 n)))
 (let (($x1554 (= ?x7499 ?x7052)))
 (or $x1554 $x9850)))))))
 ))
 (let ((?x3757 (sc_t 4)))
 (let ((?x805 (sc_s 5)))
 (let (($x9143 (= ?x805 ?x3757)))
 (let ((?x71 (used_gas_t x_0 x_1 x_2 0)))
 (let ((?x9071 (used_gas_s x_0 x_1 x_2 0)))
 (let (($x7416 (= ?x9071 ?x71)))
 (let (($x8196 (forall ((w (_ BitVec 256)) )(let ((?x2478 (storage_t x_0 x_1 x_2 0 w)))
 (let ((?x5314 (storage_s x_0 x_1 x_2 0 w)))
 (= ?x5314 ?x2478))))
 ))
 (let (($x56 (exc_halt_t 0)))
 (let (($x57 (exc_halt_s 0)))
 (let (($x58 (= $x57 $x56)))
 (let (($x2106 (forall ((n (_ BitVec 6)) )(let ((?x63 (sc_t 0)))
 (let (($x10077 (bvsle ?x63 n)))
 (let ((?x1939 (stack_t x_0 x_1 x_2 0 n)))
 (let ((?x989 (stack_s x_0 x_1 x_2 0 n)))
 (let (($x6471 (= ?x989 ?x1939)))
 (or $x6471 $x10077)))))))
 ))
 (let ((?x63 (sc_t 0)))
 (let ((?x72 (sc_s 0)))
 (let (($x73 (= ?x72 ?x63)))
 (let (($x9115 (= $x3723 (or (exc_halt_t 3) (not (bvsle (_ bv0 6) (bvadd (_ bv61 6) (sc_t 3))))))))
 (let (($x9453 (forall ((w (_ BitVec 256)) )(let ((?x9420 (storage_t x_0 x_1 x_2 3 w)))
 (let ((?x7184 (storage_t x_0 x_1 x_2 4 w)))
 (= ?x7184 ?x9420))))
 ))
 (let (($x2598 (forall ((n (_ BitVec 6)) )(let ((?x325 (stack_t x_0 x_1 x_2 3 n)))
 (let ((?x7052 (stack_t x_0 x_1 x_2 4 n)))
 (or (bvsle (bvadd (_ bv61 6) (sc_t 3)) n) (= ?x7052 ?x325)))))
 ))
 (let ((?x3005 (sc_t 3)))
 (let (($x134 (= ?x3757 ?x3005)))
 (let (($x11789 (= (used_gas_t x_0 x_1 x_2 4) (+ 3 (used_gas_t x_0 x_1 x_2 3)))))
 (let (($x11076 (= (stack_t x_0 x_1 x_2 4 (bvadd (_ bv62 6) ?x3757)) (stack_t x_0 x_1 x_2 3 (bvadd (_ bv62 6) ?x3005)))))
 (let ((?x4707 (bvadd (_ bv63 6) ?x3005)))
 (let ((?x2581 (stack_t x_0 x_1 x_2 3 ?x4707)))
 (let (($x2384 (= (stack_t x_0 x_1 x_2 4 (bvadd (_ bv63 6) ?x3757)) (stack_t x_0 x_1 x_2 3 (bvadd (_ bv61 6) ?x3005)))))
 (let (($x9755 (not (= ((_ extract 6 6) (bvadd (_ bv1 7) (concat (_ bv0 1) (sc_t 2)))) (_ bv0 1)))))
 (let (($x903 (exc_halt_t 2)))
 (let (($x8325 (exc_halt_t 3)))
 (let (($x3787 (forall ((w (_ BitVec 256)) )(let ((?x7156 (storage_t x_0 x_1 x_2 2 w)))
 (let ((?x9420 (storage_t x_0 x_1 x_2 3 w)))
 (= ?x9420 ?x7156))))
 ))
 (let (($x4188 (forall ((n (_ BitVec 6)) )(let ((?x2709 (stack_t x_0 x_1 x_2 2 n)))
 (let ((?x325 (stack_t x_0 x_1 x_2 3 n)))
 (or (= ?x325 ?x2709) (bvsle (bvadd (_ bv60 6) (sc_t 2)) n)))))
 ))
 (let (($x10496 (= ?x3005 (bvadd (_ bv1 6) (sc_t 2)))))
 (let ((?x5078 (used_gas_t x_0 x_1 x_2 3)))
 (let ((?x4056 (sc_t 2)))
 (let ((?x5207 (bvadd (_ bv63 6) ?x4056)))
 (let ((?x7030 (stack_t x_0 x_1 x_2 2 ?x5207)))
 (let ((?x5157 (bvadd (_ bv62 6) ?x4056)))
 (let ((?x1909 (stack_t x_0 x_1 x_2 2 ?x5157)))
 (let ((?x2620 (bvadd (_ bv61 6) ?x4056)))
 (let ((?x2085 (stack_t x_0 x_1 x_2 2 ?x2620)))
 (let ((?x4641 (bvadd (_ bv60 6) ?x4056)))
 (let ((?x10403 (stack_t x_0 x_1 x_2 2 ?x4641)))
 (let (($x11097 (= $x903 (or (exc_halt_t 1) (not (bvsle (_ bv0 6) (bvadd (_ bv60 6) (sc_t 1))))))))
 (let (($x10214 (forall ((w (_ BitVec 256)) )(let ((?x10906 (storage_t x_0 x_1 x_2 1 w)))
 (let ((?x7156 (storage_t x_0 x_1 x_2 2 w)))
 (= ?x7156 ?x10906))))
 ))
 (let (($x3247 (forall ((n (_ BitVec 6)) )(let ((?x9459 (stack_t x_0 x_1 x_2 1 n)))
 (let ((?x2709 (stack_t x_0 x_1 x_2 2 n)))
 (or (= ?x2709 ?x9459) (bvsle (bvadd (_ bv60 6) (sc_t 1)) n)))))
 ))
 (let ((?x4023 (sc_t 1)))
 (let (($x10289 (= ?x4056 ?x4023)))
 (let ((?x6272 (used_gas_t x_0 x_1 x_2 2)))
 (let (($x5287 (not (= ((_ extract 6 6) (bvadd (_ bv1 7) (concat (_ bv0 1) ?x63))) (_ bv0 1)))))
 (let (($x1920 (exc_halt_t 1)))
 (let (($x3120 (forall ((w (_ BitVec 256)) )(let ((?x2478 (storage_t x_0 x_1 x_2 0 w)))
 (let ((?x10906 (storage_t x_0 x_1 x_2 1 w)))
 (= ?x10906 ?x2478))))
 ))
 (let (($x10167 (forall ((n (_ BitVec 6)) )(let ((?x1939 (stack_t x_0 x_1 x_2 0 n)))
 (let ((?x9459 (stack_t x_0 x_1 x_2 1 n)))
 (or (= ?x9459 ?x1939) (bvsle (bvadd (_ bv62 6) (sc_t 0)) n)))))
 ))
 (let (($x5112 (= ?x4023 (bvadd (_ bv1 6) ?x63))))
 (let (($x5429 (= (stack_t x_0 x_1 x_2 1 (bvadd (_ bv63 6) ?x63)) (stack_t x_0 x_1 x_2 0 (bvadd (_ bv63 6) ?x63)))))
 (let ((?x6815 (bvadd (_ bv62 6) ?x63)))
 (let ((?x3828 (stack_t x_0 x_1 x_2 0 ?x6815)))
 (let (($x8605 (= $x3979 (or (exc_halt_s 4) (not (bvsle (_ bv0 6) (bvadd (_ bv60 6) (sc_s 4))))))))
 (let (($x2789 (forall ((w (_ BitVec 256)) )(let ((?x5295 (storage_s x_0 x_1 x_2 4 w)))
 (let ((?x11318 (storage_s x_0 x_1 x_2 5 w)))
 (= ?x11318 ?x5295))))
 ))
 (let (($x253 (forall ((n (_ BitVec 6)) )(let ((?x3664 (stack_s x_0 x_1 x_2 4 n)))
 (let ((?x7499 (stack_s x_0 x_1 x_2 5 n)))
 (or (bvsle (bvadd (_ bv60 6) (sc_s 4)) n) (= ?x7499 ?x3664)))))
 ))
 (let ((?x4305 (sc_s 4)))
 (let (($x10230 (= ?x805 ?x4305)))
 (let (($x6065 (= (used_gas_s x_0 x_1 x_2 5) (+ 3 (used_gas_s x_0 x_1 x_2 4)))))
 (let (($x8585 (= (stack_s x_0 x_1 x_2 5 (bvadd (_ bv62 6) ?x805)) (stack_s x_0 x_1 x_2 4 (bvadd (_ bv62 6) ?x4305)))))
 (let (($x3961 (= (stack_s x_0 x_1 x_2 5 (bvadd (_ bv61 6) ?x805)) (stack_s x_0 x_1 x_2 4 (bvadd (_ bv61 6) ?x4305)))))
 (let ((?x11391 (bvadd (_ bv63 6) ?x4305)))
 (let ((?x5959 (stack_s x_0 x_1 x_2 4 ?x11391)))
 (let (($x1348 (= (stack_s x_0 x_1 x_2 5 (bvadd (_ bv63 6) ?x805)) (stack_s x_0 x_1 x_2 4 (bvadd (_ bv60 6) ?x4305)))))
 (let (($x8698 (not (bvsle (_ bv0 6) (bvadd (_ bv60 6) (sc_s 3))))))
 (let (($x4879 (not (= ((_ extract 6 6) (bvadd (_ bv1 7) (concat (_ bv0 1) (sc_s 3)))) (_ bv0 1)))))
 (let (($x292 (exc_halt_s 3)))
 (let (($x64 (exc_halt_s 4)))
 (let (($x3281 (forall ((w (_ BitVec 256)) )(let ((?x11312 (storage_s x_0 x_1 x_2 3 w)))
 (let ((?x5295 (storage_s x_0 x_1 x_2 4 w)))
 (= ?x5295 ?x11312))))
 ))
 (let (($x3394 (forall ((n (_ BitVec 6)) )(let ((?x824 (stack_s x_0 x_1 x_2 3 n)))
 (let ((?x3664 (stack_s x_0 x_1 x_2 4 n)))
 (let ((?x275 (sc_s 3)))
 (let ((?x5621 (bvadd (_ bv60 6) ?x275)))
 (let (($x6377 (bvsle ?x5621 n)))
 (or $x6377 (= ?x3664 ?x824))))))))
 ))
 (let (($x10369 (= ?x4305 (bvadd (_ bv1 6) (sc_s 3)))))
 (let ((?x10788 (used_gas_s x_0 x_1 x_2 4)))
 (let ((?x275 (sc_s 3)))
 (let ((?x318 (bvadd (_ bv63 6) ?x275)))
 (let ((?x11304 (stack_s x_0 x_1 x_2 3 ?x318)))
 (let ((?x10563 (bvadd (_ bv62 6) ?x275)))
 (let ((?x1488 (stack_s x_0 x_1 x_2 3 ?x10563)))
 (let ((?x10434 (bvadd (_ bv61 6) ?x275)))
 (let ((?x4488 (stack_s x_0 x_1 x_2 3 ?x10434)))
 (let ((?x5621 (bvadd (_ bv60 6) ?x275)))
 (let ((?x6632 (stack_s x_0 x_1 x_2 3 ?x5621)))
 (let (($x9427 (= $x292 (or (exc_halt_s 2) (not (bvsle (_ bv0 6) (bvadd (_ bv60 6) (sc_s 2))))))))
 (let (($x3262 (forall ((w (_ BitVec 256)) )(let ((?x194 (storage_s x_0 x_1 x_2 2 w)))
 (let ((?x11312 (storage_s x_0 x_1 x_2 3 w)))
 (= ?x11312 ?x194))))
 ))
 (let (($x4166 (forall ((n (_ BitVec 6)) )(let ((?x7261 (stack_s x_0 x_1 x_2 2 n)))
 (let ((?x824 (stack_s x_0 x_1 x_2 3 n)))
 (or (bvsle (bvadd (_ bv60 6) (sc_s 2)) n) (= ?x824 ?x7261)))))
 ))
 (let ((?x218 (sc_s 2)))
 (let (($x10128 (= ?x275 ?x218)))
 (let ((?x2729 (used_gas_s x_0 x_1 x_2 3)))
 (let (($x5271 (not (= ((_ extract 6 6) (bvadd (_ bv1 7) (concat (_ bv0 1) (sc_s 1)))) (_ bv0 1)))))
 (let (($x1405 (not (bvsle (_ bv0 6) (bvadd (_ bv63 6) (sc_s 1))))))
 (let (($x189 (exc_halt_s 1)))
 (let (($x247 (exc_halt_s 2)))
 (let (($x4935 (forall ((w (_ BitVec 256)) )(let ((?x9220 (storage_s x_0 x_1 x_2 1 w)))
 (let ((?x194 (storage_s x_0 x_1 x_2 2 w)))
 (= ?x194 ?x9220))))
 ))
 (let (($x2666 (forall ((n (_ BitVec 6)) )(let ((?x154 (sc_s 1)))
 (let ((?x917 (bvadd (_ bv63 6) ?x154)))
 (let (($x6822 (bvsle ?x917 n)))
 (let ((?x7134 (stack_s x_0 x_1 x_2 1 n)))
 (let ((?x7261 (stack_s x_0 x_1 x_2 2 n)))
 (or (= ?x7261 ?x7134) $x6822)))))))
 ))
 (let (($x10288 (= ?x218 (bvadd (_ bv1 6) (sc_s 1)))))
 (let ((?x8620 (used_gas_s x_0 x_1 x_2 2)))
 (let ((?x154 (sc_s 1)))
 (let ((?x917 (bvadd (_ bv63 6) ?x154)))
 (let ((?x3133 (stack_s x_0 x_1 x_2 1 ?x917)))
 (let (($x11144 (forall ((w (_ BitVec 256)) )(let ((?x5314 (storage_s x_0 x_1 x_2 0 w)))
 (let ((?x9220 (storage_s x_0 x_1 x_2 1 w)))
 (= ?x9220 ?x5314))))
 ))
 (let (($x11315 (forall ((n (_ BitVec 6)) )(let ((?x989 (stack_s x_0 x_1 x_2 0 n)))
 (let ((?x7134 (stack_s x_0 x_1 x_2 1 n)))
 (or (= ?x7134 ?x989) (bvsle (bvadd (_ bv62 6) (sc_s 0)) n)))))
 ))
 (let (($x3792 (= (stack_s x_0 x_1 x_2 1 (bvadd (_ bv62 6) ?x154)) (stack_s x_0 x_1 x_2 0 (bvadd (_ bv63 6) ?x72)))))
 (let (($x2582 (forall ((w (_ BitVec 256)) )(let ((?x5314 (storage_s x_0 x_1 x_2 0 w)))
 (= ?x5314 (_ bv0 256))))
 ))
 (let (($x7504 (= ?x9071 0)))
 (let (($x1898 (not $x57)))
 (let (($x6616 (= (stack_s x_0 x_1 x_2 0 (_ bv2 6)) x_2)))
 (let (($x125 (= (stack_s x_0 x_1 x_2 0 (_ bv1 6)) x_1)))
 (let (($x86 (= (stack_s x_0 x_1 x_2 0 (_ bv0 6)) x_0)))
 (let (($x9209 (= ?x72 (_ bv3 6))))
 (and $x9209 $x86 $x125 $x6616 $x1898 $x7504 $x2582 (= ?x3133 (stack_s x_0 x_1 x_2 0 (bvadd (_ bv62 6) ?x72))) $x3792 (= (used_gas_s x_0 x_1 x_2 1) (+ 3 ?x9071)) (= ?x154 ?x72) $x11315 $x11144 (= $x189 (or $x57 (not (bvsle (_ bv0 6) (bvadd (_ bv62 6) ?x72))))) (= (stack_s x_0 x_1 x_2 2 (bvadd (_ bv63 6) ?x218)) ?x3133) (= (stack_s x_0 x_1 x_2 2 ?x917) ?x3133) (= ?x8620 (+ 3 (used_gas_s x_0 x_1 x_2 1))) $x10288 $x2666 $x4935 (= $x247 (or $x189 $x1405 $x5271)) (= ?x11304 (stack_s x_0 x_1 x_2 2 (bvadd (_ bv60 6) ?x218))) (= ?x6632 (stack_s x_0 x_1 x_2 2 (bvadd (_ bv63 6) ?x218))) (= ?x4488 (stack_s x_0 x_1 x_2 2 (bvadd (_ bv61 6) ?x218))) (= ?x1488 (stack_s x_0 x_1 x_2 2 (bvadd (_ bv62 6) ?x218))) (= ?x2729 (+ 3 ?x8620)) $x10128 $x4166 $x3262 $x9427 (= ?x5959 ?x6632) (= (stack_s x_0 x_1 x_2 4 ?x5621) ?x6632) (= (stack_s x_0 x_1 x_2 4 ?x10434) ?x4488) (= (stack_s x_0 x_1 x_2 4 ?x10563) ?x1488) (= (stack_s x_0 x_1 x_2 4 ?x318) ?x11304) (= ?x10788 (+ 3 ?x2729)) $x10369 $x3394 $x3281 (= $x64 (or $x292 $x4879 $x8698)) $x1348 (= (stack_s x_0 x_1 x_2 5 (bvadd (_ bv60 6) ?x805)) ?x5959) $x3961 $x8585 $x6065 $x10230 $x253 $x2789 $x8605 (= (stack_t x_0 x_1 x_2 1 (bvadd (_ bv63 6) ?x4023)) ?x3828) (= (stack_t x_0 x_1 x_2 1 ?x6815) ?x3828) $x5429 (= (used_gas_t x_0 x_1 x_2 1) (+ 3 ?x71)) $x5112 $x10167 $x3120 (= $x1920 (or $x56 (not (bvsle (_ bv0 6) ?x6815)) $x5287)) (= ?x7030 (stack_t x_0 x_1 x_2 1 (bvadd (_ bv60 6) ?x4023))) (= ?x10403 (stack_t x_0 x_1 x_2 1 (bvadd (_ bv63 6) ?x4023))) (= ?x2085 (stack_t x_0 x_1 x_2 1 (bvadd (_ bv61 6) ?x4023))) (= ?x1909 (stack_t x_0 x_1 x_2 1 (bvadd (_ bv62 6) ?x4023))) (= ?x6272 (+ 3 (used_gas_t x_0 x_1 x_2 1))) $x10289 $x3247 $x10214 $x11097 (= ?x2581 ?x10403) (= (stack_t x_0 x_1 x_2 3 ?x4641) ?x10403) (= (stack_t x_0 x_1 x_2 3 ?x2620) ?x2085) (= (stack_t x_0 x_1 x_2 3 ?x5157) ?x1909) (= (stack_t x_0 x_1 x_2 3 ?x5207) ?x7030) (= ?x5078 (+ 3 ?x6272)) $x10496 $x4188 $x3787 (= $x8325 (or $x903 $x9755 (not (bvsle (_ bv0 6) ?x4641)))) $x2384 (= (stack_t x_0 x_1 x_2 4 (bvadd (_ bv61 6) ?x3757)) ?x2581) $x11076 $x11789 $x134 $x2598 $x9453 $x9115 $x73 $x2106 $x58 $x8196 $x7416 (not (and $x9143 $x2433 $x7567 $x1988))))))))))))))))))))))))))))))))))))))))))))))))))))))))))))))))))))))))))))))))))))))))))))))))))))))))))))))))))))))
 )
(check-sat)
(get-proof)
